NAME : mtspf.pid3532.gtsp.81530635.tour
COMMENT : Length = 81530635
COMMENT : Found by LKH [Keld Helsgaun] Fri Feb 21 16:24:05 2025
TYPE : TOUR
DIMENSION : 45
TOUR_SECTION
1
4
24
25
22
23
34
35
36
37
5
45
42
43
44
20
21
18
19
8
9
6
7
3
32
33
30
31
2
12
13
10
11
14
15
16
17
41
38
39
40
29
26
27
28
-1
EOF
